c Standarized MaxSat Instance
c{
c "sha1sum": "7c4a33221655aa33b946422a6b592aee44a7de5e",
c "nvars": 140,
c "ncls": 1258,
c "nhards": 0,
c "nhard_len_stats":
c    { "min": 0, "max": 0, "ave": 0.00,
c      "stddev": 0.00 },
c "nsofts": 1258,
c "nsoft_len_stats":
c    { "min": 2, "max": 2, "ave": 2.00,
c      "stddev": 0.00 },
c "nsoft_wts": 1,
c "soft_wt_stats":
c    { "min": 1, "max": 1, "ave": 1.00,
c      "stddev": 0.00 }
c}
c------------------------------------------------------------
c strEdges: 125  randomEdges: 504 
c degrees:  1  2 
c girth: Inf max: -43.604516  
c Hgirth mixed MAXCUT instance
c generated from an undirected graph
c to solve unweighted MaxCut
p wcnf 140 1258 1259
1 70 127 0
1 -70 -127 0
1 70 73 0
1 -70 -73 0
1 123 91 0
1 -123 -91 0
1 123 116 0
1 -123 -116 0
1 33 32 0
1 -33 -32 0
1 33 102 0
1 -33 -102 0
1 112 65 0
1 -112 -65 0
1 112 2 0
1 -112 -2 0
1 109 97 0
1 -109 -97 0
1 26 66 0
1 -26 -66 0
1 26 110 0
1 -26 -110 0
1 4 39 0
1 -4 -39 0
1 4 71 0
1 -4 -71 0
1 64 108 0
1 -64 -108 0
1 64 36 0
1 -64 -36 0
1 10 29 0
1 -10 -29 0
1 10 139 0
1 -10 -139 0
1 121 96 0
1 -121 -96 0
1 121 17 0
1 -121 -17 0
1 62 72 0
1 -62 -72 0
1 62 103 0
1 -62 -103 0
1 138 69 0
1 -138 -69 0
1 138 125 0
1 -138 -125 0
1 51 8 0
1 -51 -8 0
1 51 76 0
1 -51 -76 0
1 100 2 0
1 -100 -2 0
1 38 58 0
1 -38 -58 0
1 38 1 0
1 -38 -1 0
1 136 128 0
1 -136 -128 0
1 131 11 0
1 -131 -11 0
1 131 67 0
1 -131 -67 0
1 129 119 0
1 -129 -119 0
1 129 25 0
1 -129 -25 0
1 101 41 0
1 -101 -41 0
1 101 90 0
1 -101 -90 0
1 85 67 0
1 -85 -67 0
1 85 82 0
1 -85 -82 0
1 15 115 0
1 -15 -115 0
1 42 99 0
1 -42 -99 0
1 42 75 0
1 -42 -75 0
1 7 19 0
1 -7 -19 0
1 7 8 0
1 -7 -8 0
1 61 84 0
1 -61 -84 0
1 124 75 0
1 -124 -75 0
1 124 29 0
1 -124 -29 0
1 21 103 0
1 -21 -103 0
1 21 24 0
1 -21 -24 0
1 79 73 0
1 -79 -73 0
1 79 119 0
1 -79 -119 0
1 20 120 0
1 -20 -120 0
1 20 63 0
1 -20 -63 0
1 60 83 0
1 -60 -83 0
1 60 16 0
1 -60 -16 0
1 104 5 0
1 -104 -5 0
1 81 110 0
1 -81 -110 0
1 74 76 0
1 -74 -76 0
1 53 71 0
1 -53 -71 0
1 53 127 0
1 -53 -127 0
1 48 80 0
1 -48 -80 0
1 48 128 0
1 -48 -128 0
1 134 78 0
1 -134 -78 0
1 134 80 0
1 -134 -80 0
1 54 3 0
1 -54 -3 0
1 54 14 0
1 -54 -14 0
1 35 43 0
1 -35 -43 0
1 35 120 0
1 -35 -120 0
1 88 90 0
1 -88 -90 0
1 88 84 0
1 -88 -84 0
1 92 102 0
1 -92 -102 0
1 92 97 0
1 -92 -97 0
1 87 12 0
1 -87 -12 0
1 87 11 0
1 -87 -11 0
1 89 133 0
1 -89 -133 0
1 89 106 0
1 -89 -106 0
1 56 17 0
1 -56 -17 0
1 56 58 0
1 -56 -58 0
1 117 46 0
1 -117 -46 0
1 117 5 0
1 -117 -5 0
1 135 9 0
1 -135 -9 0
1 118 63 0
1 -118 -63 0
1 118 94 0
1 -118 -94 0
1 47 49 0
1 -47 -49 0
1 132 77 0
1 -132 -77 0
1 132 114 0
1 -132 -114 0
1 57 36 0
1 -57 -36 0
1 57 22 0
1 -57 -22 0
1 31 37 0
1 -31 -37 0
1 31 46 0
1 -31 -46 0
1 6 116 0
1 -6 -116 0
1 6 52 0
1 -6 -52 0
1 86 28 0
1 -86 -28 0
1 86 12 0
1 -86 -12 0
1 34 82 0
1 -34 -82 0
1 34 41 0
1 -34 -41 0
1 40 16 0
1 -40 -16 0
1 40 66 0
1 -40 -66 0
1 137 25 0
1 -137 -25 0
1 137 91 0
1 -137 -91 0
1 111 68 0
1 -111 -68 0
1 111 28 0
1 -111 -28 0
1 18 113 0
1 -18 -113 0
1 122 24 0
1 -122 -24 0
1 93 52 0
1 -93 -52 0
1 59 106 0
1 -59 -106 0
1 59 44 0
1 -59 -44 0
1 23 44 0
1 -23 -44 0
1 23 9 0
1 -23 -9 0
1 30 14 0
1 -30 -14 0
1 30 37 0
1 -30 -37 0
1 98 140 0
1 -98 -140 0
1 98 49 0
1 -98 -49 0
1 45 125 0
1 -45 -125 0
1 45 83 0
1 -45 -83 0
1 107 114 0
1 -107 -114 0
1 55 95 0
1 -55 -95 0
1 55 115 0
1 -55 -115 0
1 126 50 0
1 -126 -50 0
1 126 65 0
1 -126 -65 0
1 27 94 0
1 -27 -94 0
1 27 72 0
1 -27 -72 0
1 105 22 0
1 -105 -22 0
1 130 139 0
1 -130 -139 0
1 130 39 0
1 -130 -39 0
1 13 1 0
1 -13 -1 0
1 13 43 0
1 -13 -43 0
1 117 77 0
1 -117 -77 0
1 56 98 0
1 -56 -98 0
1 35 106 0
1 -35 -106 0
1 91 102 0
1 -91 -102 0
1 20 43 0
1 -20 -43 0
1 138 66 0
1 -138 -66 0
1 73 5 0
1 -73 -5 0
1 86 77 0
1 -86 -77 0
1 120 140 0
1 -120 -140 0
1 137 13 0
1 -137 -13 0
1 101 122 0
1 -101 -122 0
1 122 114 0
1 -122 -114 0
1 51 49 0
1 -51 -49 0
1 105 78 0
1 -105 -78 0
1 131 90 0
1 -131 -90 0
1 49 125 0
1 -49 -125 0
1 10 59 0
1 -10 -59 0
1 89 103 0
1 -89 -103 0
1 59 113 0
1 -59 -113 0
1 33 122 0
1 -33 -122 0
1 51 79 0
1 -51 -79 0
1 67 28 0
1 -67 -28 0
1 3 68 0
1 -3 -68 0
1 2 16 0
1 -2 -16 0
1 55 139 0
1 -55 -139 0
1 32 37 0
1 -32 -37 0
1 62 13 0
1 -62 -13 0
1 7 34 0
1 -7 -34 0
1 91 97 0
1 -91 -97 0
1 81 41 0
1 -81 -41 0
1 29 67 0
1 -29 -67 0
1 3 37 0
1 -3 -37 0
1 42 139 0
1 -42 -139 0
1 32 110 0
1 -32 -110 0
1 62 39 0
1 -62 -39 0
1 74 63 0
1 -74 -63 0
1 138 24 0
1 -138 -24 0
1 101 59 0
1 -101 -59 0
1 78 52 0
1 -78 -52 0
1 33 11 0
1 -33 -11 0
1 108 36 0
1 -108 -36 0
1 8 44 0
1 -8 -44 0
1 73 116 0
1 -73 -116 0
1 66 76 0
1 -66 -76 0
1 38 111 0
1 -38 -111 0
1 64 116 0
1 -64 -116 0
1 117 127 0
1 -117 -127 0
1 84 22 0
1 -84 -22 0
1 64 49 0
1 -64 -49 0
1 33 135 0
1 -33 -135 0
1 46 116 0
1 -46 -116 0
1 35 29 0
1 -35 -29 0
1 88 67 0
1 -88 -67 0
1 88 103 0
1 -88 -103 0
1 121 12 0
1 -121 -12 0
1 76 80 0
1 -76 -80 0
1 102 36 0
1 -102 -36 0
1 101 67 0
1 -101 -67 0
1 138 61 0
1 -138 -61 0
1 31 95 0
1 -31 -95 0
1 104 56 0
1 -104 -56 0
1 123 107 0
1 -123 -107 0
1 70 66 0
1 -70 -66 0
1 109 36 0
1 -109 -36 0
1 101 76 0
1 -101 -76 0
1 127 58 0
1 -127 -58 0
1 116 95 0
1 -116 -95 0
1 137 63 0
1 -137 -63 0
1 80 114 0
1 -80 -114 0
1 90 95 0
1 -90 -95 0
1 85 23 0
1 -85 -23 0
1 15 22 0
1 -15 -22 0
1 89 17 0
1 -89 -17 0
1 129 61 0
1 -129 -61 0
1 112 90 0
1 -112 -90 0
1 100 106 0
1 -100 -106 0
1 67 5 0
1 -67 -5 0
1 54 11 0
1 -54 -11 0
1 2 12 0
1 -2 -12 0
1 96 28 0
1 -96 -28 0
1 34 94 0
1 -34 -94 0
1 18 69 0
1 -18 -69 0
1 61 12 0
1 -61 -12 0
1 46 52 0
1 -46 -52 0
1 60 1 0
1 -60 -1 0
1 97 82 0
1 -97 -82 0
1 98 103 0
1 -98 -103 0
1 107 28 0
1 -107 -28 0
1 108 22 0
1 -108 -22 0
1 31 32 0
1 -31 -32 0
1 64 98 0
1 -64 -98 0
1 111 39 0
1 -111 -39 0
1 110 82 0
1 -110 -82 0
1 81 43 0
1 -81 -43 0
1 29 12 0
1 -29 -12 0
1 119 28 0
1 -119 -28 0
1 20 57 0
1 -20 -57 0
1 6 115 0
1 -6 -115 0
1 62 132 0
1 -62 -132 0
1 97 22 0
1 -97 -22 0
1 64 59 0
1 -64 -59 0
1 116 82 0
1 -116 -82 0
1 123 93 0
1 -123 -93 0
1 85 66 0
1 -85 -66 0
1 42 97 0
1 -42 -97 0
1 105 32 0
1 -105 -32 0
1 84 78 0
1 -84 -78 0
1 43 94 0
1 -43 -94 0
1 11 49 0
1 -11 -49 0
1 55 16 0
1 -55 -16 0
1 112 62 0
1 -112 -62 0
1 74 92 0
1 -74 -92 0
1 41 84 0
1 -41 -84 0
1 85 79 0
1 -85 -79 0
1 132 120 0
1 -132 -120 0
1 18 126 0
1 -18 -126 0
1 18 115 0
1 -18 -115 0
1 83 44 0
1 -83 -44 0
1 27 110 0
1 -27 -110 0
1 36 28 0
1 -36 -28 0
1 103 46 0
1 -103 -46 0
1 77 82 0
1 -77 -82 0
1 103 49 0
1 -103 -49 0
1 69 2 0
1 -69 -2 0
1 124 118 0
1 -124 -118 0
1 86 5 0
1 -86 -5 0
1 7 72 0
1 -7 -72 0
1 97 9 0
1 -97 -9 0
1 69 68 0
1 -69 -68 0
1 40 2 0
1 -40 -2 0
1 59 25 0
1 -59 -25 0
1 27 11 0
1 -27 -11 0
1 34 122 0
1 -34 -122 0
1 126 133 0
1 -126 -133 0
1 62 80 0
1 -62 -80 0
1 115 5 0
1 -115 -5 0
1 111 63 0
1 -111 -63 0
1 104 72 0
1 -104 -72 0
1 70 38 0
1 -70 -38 0
1 121 42 0
1 -121 -42 0
1 138 99 0
1 -138 -99 0
1 77 95 0
1 -77 -95 0
1 2 106 0
1 -2 -106 0
1 91 99 0
1 -91 -99 0
1 92 75 0
1 -92 -75 0
1 44 22 0
1 -44 -22 0
1 85 118 0
1 -85 -118 0
1 48 135 0
1 -48 -135 0
1 48 113 0
1 -48 -113 0
1 76 37 0
1 -76 -37 0
1 123 6 0
1 -123 -6 0
1 85 125 0
1 -85 -125 0
1 4 99 0
1 -4 -99 0
1 74 58 0
1 -74 -58 0
1 15 35 0
1 -15 -35 0
1 136 14 0
1 -136 -14 0
1 98 133 0
1 -98 -133 0
1 81 90 0
1 -81 -90 0
1 106 114 0
1 -106 -114 0
1 137 90 0
1 -137 -90 0
1 76 133 0
1 -76 -133 0
1 117 105 0
1 -117 -105 0
1 32 94 0
1 -32 -94 0
1 112 81 0
1 -112 -81 0
1 133 82 0
1 -133 -82 0
1 79 59 0
1 -79 -59 0
1 101 58 0
1 -101 -58 0
1 23 46 0
1 -23 -46 0
1 91 116 0
1 -91 -116 0
1 3 43 0
1 -3 -43 0
1 43 139 0
1 -43 -139 0
1 109 53 0
1 -109 -53 0
1 31 41 0
1 -31 -41 0
1 38 39 0
1 -38 -39 0
1 4 118 0
1 -4 -118 0
1 135 22 0
1 -135 -22 0
1 39 106 0
1 -39 -106 0
1 33 97 0
1 -33 -97 0
1 136 104 0
1 -136 -104 0
1 129 132 0
1 -129 -132 0
1 56 99 0
1 -56 -99 0
1 86 72 0
1 -86 -72 0
1 35 83 0
1 -35 -83 0
1 137 78 0
1 -137 -78 0
1 5 9 0
1 -5 -9 0
1 103 106 0
1 -103 -106 0
1 134 116 0
1 -134 -116 0
1 87 96 0
1 -87 -96 0
1 49 77 0
1 -49 -77 0
1 131 114 0
1 -131 -114 0
1 39 139 0
1 -39 -139 0
1 88 87 0
1 -88 -87 0
1 10 137 0
1 -10 -137 0
1 32 75 0
1 -32 -75 0
1 121 87 0
1 -121 -87 0
1 40 14 0
1 -40 -14 0
1 56 14 0
1 -56 -14 0
1 81 27 0
1 -81 -27 0
1 57 2 0
1 -57 -2 0
1 36 114 0
1 -36 -114 0
1 105 39 0
1 -105 -39 0
1 48 36 0
1 -48 -36 0
1 137 45 0
1 -137 -45 0
1 138 75 0
1 -138 -75 0
1 20 104 0
1 -20 -104 0
1 55 120 0
1 -55 -120 0
1 51 88 0
1 -51 -88 0
1 60 93 0
1 -60 -93 0
1 92 103 0
1 -92 -103 0
1 88 115 0
1 -88 -115 0
1 5 133 0
1 -5 -133 0
1 14 94 0
1 -14 -94 0
1 21 54 0
1 -21 -54 0
1 74 120 0
1 -74 -120 0
1 44 1 0
1 -44 -1 0
1 112 76 0
1 -112 -76 0
1 54 125 0
1 -54 -125 0
1 120 94 0
1 -120 -94 0
1 91 44 0
1 -91 -44 0
1 66 1 0
1 -66 -1 0
1 86 30 0
1 -86 -30 0
1 21 125 0
1 -21 -125 0
1 29 71 0
1 -29 -71 0
1 70 96 0
1 -70 -96 0
1 108 139 0
1 -108 -139 0
1 4 80 0
1 -4 -80 0
1 35 14 0
1 -35 -14 0
1 92 130 0
1 -92 -130 0
1 13 102 0
1 -13 -102 0
1 121 47 0
1 -121 -47 0
1 38 72 0
1 -38 -72 0
1 122 14 0
1 -122 -14 0
1 101 17 0
1 -101 -17 0
1 70 117 0
1 -70 -117 0
1 9 114 0
1 -9 -114 0
1 33 64 0
1 -33 -64 0
1 6 95 0
1 -6 -95 0
1 21 98 0
1 -21 -98 0
1 7 107 0
1 -7 -107 0
1 64 61 0
1 -64 -61 0
1 45 80 0
1 -45 -80 0
1 21 20 0
1 -21 -20 0
1 34 99 0
1 -34 -99 0
1 124 37 0
1 -124 -37 0
1 127 43 0
1 -127 -43 0
1 138 11 0
1 -138 -11 0
1 48 84 0
1 -48 -84 0
1 6 111 0
1 -6 -111 0
1 47 69 0
1 -47 -69 0
1 100 93 0
1 -100 -93 0
1 91 41 0
1 -91 -41 0
1 101 86 0
1 -101 -86 0
1 51 82 0
1 -51 -82 0
1 21 49 0
1 -21 -49 0
1 136 137 0
1 -136 -137 0
1 105 72 0
1 -105 -72 0
1 7 135 0
1 -7 -135 0
1 74 57 0
1 -74 -57 0
1 109 63 0
1 -109 -63 0
1 93 78 0
1 -93 -78 0
1 134 3 0
1 -134 -3 0
1 67 80 0
1 -67 -80 0
1 56 117 0
1 -56 -117 0
1 101 18 0
1 -101 -18 0
1 110 116 0
1 -110 -116 0
1 56 135 0
1 -56 -135 0
1 12 113 0
1 -12 -113 0
1 42 61 0
1 -42 -61 0
1 32 68 0
1 -32 -68 0
1 48 75 0
1 -48 -75 0
1 112 22 0
1 -112 -22 0
1 40 23 0
1 -40 -23 0
1 70 115 0
1 -70 -115 0
1 123 80 0
1 -123 -80 0
1 33 50 0
1 -33 -50 0
1 136 60 0
1 -136 -60 0
1 35 46 0
1 -35 -46 0
1 101 92 0
1 -101 -92 0
1 15 99 0
1 -15 -99 0
1 78 114 0
1 -78 -114 0
1 123 42 0
1 -123 -42 0
1 111 139 0
1 -111 -139 0
1 56 69 0
1 -56 -69 0
1 112 12 0
1 -112 -12 0
1 121 25 0
1 -121 -25 0
1 42 43 0
1 -42 -43 0
1 38 125 0
1 -38 -125 0
1 124 28 0
1 -124 -28 0
1 101 125 0
1 -101 -125 0
1 34 80 0
1 -34 -80 0
1 59 126 0
1 -59 -126 0
1 31 22 0
1 -31 -22 0
1 87 125 0
1 -87 -125 0
1 11 68 0
1 -11 -68 0
1 107 58 0
1 -107 -58 0
1 43 28 0
1 -43 -28 0
1 58 95 0
1 -58 -95 0
1 64 95 0
1 -64 -95 0
1 138 110 0
1 -138 -110 0
1 123 75 0
1 -123 -75 0
1 92 116 0
1 -92 -116 0
1 5 82 0
1 -5 -82 0
1 62 120 0
1 -62 -120 0
1 132 82 0
1 -132 -82 0
1 34 68 0
1 -34 -68 0
1 31 11 0
1 -31 -11 0
1 77 116 0
1 -77 -116 0
1 99 116 0
1 -99 -116 0
1 121 105 0
1 -121 -105 0
1 123 11 0
1 -123 -11 0
1 64 107 0
1 -64 -107 0
1 26 106 0
1 -26 -106 0
1 33 20 0
1 -33 -20 0
1 34 130 0
1 -34 -130 0
1 136 31 0
1 -136 -31 0
1 72 24 0
1 -72 -24 0
1 15 128 0
1 -15 -128 0
1 118 28 0
1 -118 -28 0
1 136 79 0
1 -136 -79 0
1 111 140 0
1 -111 -140 0
1 47 116 0
1 -47 -116 0
1 62 96 0
1 -62 -96 0
1 15 92 0
1 -15 -92 0
1 78 16 0
1 -78 -16 0
1 129 94 0
1 -129 -94 0
1 11 139 0
1 -11 -139 0
1 30 11 0
1 -30 -11 0
1 132 9 0
1 -132 -9 0
1 75 37 0
1 -75 -37 0
1 57 9 0
1 -57 -9 0
1 47 108 0
1 -47 -108 0
1 130 83 0
1 -130 -83 0
1 89 71 0
1 -89 -71 0
1 53 11 0
1 -53 -11 0
1 98 58 0
1 -98 -58 0
1 124 5 0
1 -124 -5 0
1 55 12 0
1 -55 -12 0
1 134 6 0
1 -134 -6 0
1 16 106 0
1 -16 -106 0
1 120 80 0
1 -120 -80 0
1 85 132 0
1 -85 -132 0
1 55 72 0
1 -55 -72 0
1 100 81 0
1 -100 -81 0
1 127 97 0
1 -127 -97 0
1 39 84 0
1 -39 -84 0
1 117 84 0
1 -117 -84 0
1 105 3 0
1 -105 -3 0
1 90 9 0
1 -90 -9 0
1 85 43 0
1 -85 -43 0
1 30 32 0
1 -30 -32 0
1 30 72 0
1 -30 -72 0
1 5 113 0
1 -5 -113 0
1 109 105 0
1 -109 -105 0
1 137 36 0
1 -137 -36 0
1 59 45 0
1 -59 -45 0
1 45 16 0
1 -45 -16 0
1 60 40 0
1 -60 -40 0
1 127 52 0
1 -127 -52 0
1 100 102 0
1 -100 -102 0
1 58 14 0
1 -58 -14 0
1 63 82 0
1 -63 -82 0
1 112 71 0
1 -112 -71 0
1 122 102 0
1 -122 -102 0
1 42 83 0
1 -42 -83 0
1 88 80 0
1 -88 -80 0
1 31 66 0
1 -31 -66 0
1 96 5 0
1 -96 -5 0
1 129 85 0
1 -129 -85 0
1 5 37 0
1 -5 -37 0
1 129 117 0
1 -129 -117 0
1 74 39 0
1 -74 -39 0
1 100 97 0
1 -100 -97 0
1 33 116 0
1 -33 -116 0
1 29 8 0
1 -29 -8 0
1 72 76 0
1 -72 -76 0
1 2 25 0
1 -2 -25 0
1 54 25 0
1 -54 -25 0
1 61 54 0
1 -61 -54 0
1 69 133 0
1 -69 -133 0
1 79 96 0
1 -79 -96 0
1 138 32 0
1 -138 -32 0
1 101 15 0
1 -101 -15 0
1 60 87 0
1 -60 -87 0
1 93 98 0
1 -93 -98 0
1 65 9 0
1 -65 -9 0
1 136 7 0
1 -136 -7 0
1 79 120 0
1 -79 -120 0
1 72 3 0
1 -72 -3 0
1 25 44 0
1 -25 -44 0
1 33 29 0
1 -33 -29 0
1 123 9 0
1 -123 -9 0
1 67 44 0
1 -67 -44 0
1 37 16 0
1 -37 -16 0
1 61 88 0
1 -61 -88 0
1 119 75 0
1 -119 -75 0
1 87 65 0
1 -87 -65 0
1 55 133 0
1 -55 -133 0
1 11 14 0
1 -11 -14 0
1 60 57 0
1 -60 -57 0
1 105 50 0
1 -105 -50 0
1 61 90 0
1 -61 -90 0
1 118 95 0
1 -118 -95 0
1 60 115 0
1 -60 -115 0
1 82 52 0
1 -82 -52 0
1 57 90 0
1 -57 -90 0
1 66 125 0
1 -66 -125 0
1 74 49 0
1 -74 -49 0
1 29 58 0
1 -29 -58 0
1 4 100 0
1 -4 -100 0
1 135 16 0
1 -135 -16 0
1 112 110 0
1 -112 -110 0
1 15 45 0
1 -15 -45 0
1 109 111 0
1 -109 -111 0
1 5 28 0
1 -5 -28 0
1 117 94 0
1 -117 -94 0
1 137 128 0
1 -137 -128 0
1 74 31 0
1 -74 -31 0
1 6 11 0
1 -6 -11 0
1 130 1 0
1 -130 -1 0
1 14 50 0
1 -14 -50 0
1 105 25 0
1 -105 -25 0
1 38 103 0
1 -38 -103 0
1 76 24 0
1 -76 -24 0
1 105 77 0
1 -105 -77 0
1 134 12 0
1 -134 -12 0
1 100 3 0
1 -100 -3 0
1 85 31 0
1 -85 -31 0
1 60 95 0
1 -60 -95 0
1 123 96 0
1 -123 -96 0
1 11 67 0
1 -11 -67 0
1 39 113 0
1 -39 -113 0
1 75 46 0
1 -75 -46 0
1 39 49 0
1 -39 -49 0
1 102 14 0
1 -102 -14 0
1 35 65 0
1 -35 -65 0
1 101 65 0
1 -101 -65 0
1 140 22 0
1 -140 -22 0
1 56 93 0
1 -56 -93 0
1 4 127 0
1 -4 -127 0
1 2 139 0
1 -2 -139 0
1 46 44 0
1 -46 -44 0
1 67 19 0
1 -67 -19 0
1 85 32 0
1 -85 -32 0
1 42 22 0
1 -42 -22 0
1 21 116 0
1 -21 -116 0
1 97 44 0
1 -97 -44 0
1 84 83 0
1 -84 -83 0
1 20 106 0
1 -20 -106 0
1 10 91 0
1 -10 -91 0
1 136 113 0
1 -136 -113 0
1 89 84 0
1 -89 -84 0
1 81 111 0
1 -81 -111 0
1 48 23 0
1 -48 -23 0
1 119 36 0
1 -119 -36 0
1 140 94 0
1 -140 -94 0
1 24 14 0
1 -24 -14 0
1 48 111 0
1 -48 -111 0
1 18 94 0
1 -18 -94 0
1 129 71 0
1 -129 -71 0
1 48 77 0
1 -48 -77 0
1 53 96 0
1 -53 -96 0
1 111 120 0
1 -111 -120 0
1 112 92 0
1 -112 -92 0
1 93 80 0
1 -93 -80 0
1 85 103 0
1 -85 -103 0
1 124 39 0
1 -124 -39 0
1 89 45 0
1 -89 -45 0
1 28 114 0
1 -28 -114 0
1 89 16 0
1 -89 -16 0
1 35 68 0
1 -35 -68 0
1 61 122 0
1 -61 -122 0
1 29 139 0
1 -29 -139 0
1 65 108 0
1 -65 -108 0
1 37 113 0
1 -37 -113 0
1 129 23 0
1 -129 -23 0
1 39 115 0
1 -39 -115 0
1 59 95 0
1 -59 -95 0
1 87 140 0
1 -87 -140 0
1 100 107 0
1 -100 -107 0
1 36 14 0
1 -36 -14 0
1 55 78 0
1 -55 -78 0
1 54 36 0
1 -54 -36 0
1 8 140 0
1 -8 -140 0
1 81 59 0
1 -81 -59 0
1 91 9 0
1 -91 -9 0
1 64 131 0
1 -64 -131 0
1 85 137 0
1 -85 -137 0
1 6 39 0
1 -6 -39 0
1 41 90 0
1 -41 -90 0
1 61 46 0
1 -61 -46 0
1 42 39 0
1 -42 -39 0
1 71 37 0
1 -71 -37 0
1 38 83 0
1 -38 -83 0
1 40 1 0
1 -40 -1 0
1 38 98 0
1 -38 -98 0
1 48 68 0
1 -48 -68 0
1 60 106 0
1 -60 -106 0
1 73 43 0
1 -73 -43 0
1 58 139 0
1 -58 -139 0
1 132 18 0
1 -132 -18 0
1 104 12 0
1 -104 -12 0
1 107 55 0
1 -107 -55 0
1 78 106 0
1 -78 -106 0
1 84 17 0
1 -84 -17 0
